min: c;

c = 2.95112482372876 * u1_t7_h4 + 3.94078676730146 * u1_t7_h5 + 4.30719312447953 * u1_t5_h6 + 4.30719312447953 * u1_t7_h6 + 3.96287031898745 * u1_t5_h7 + 3.96287031898745 * u1_t7_h7 + 3.96287031898745 * u1_t9_h7 + 5.46215717484028 * u1_t5_h8 + 5.46215717484028 * u1_t7_h8 + 5.46215717484028 * u1_t9_h8 + 5.46215717484028 * u1_t10_h8 + 5.44042492588728 * u1_t5_h9 + 5.44042492588728 * u1_t7_h9 + 5.44042492588728 * u1_t9_h9 + 5.44042492588728 * u1_t10_h9 + 4.93905266007066 * u1_t5_h10 + 4.93905266007066 * u1_t7_h10 + 4.93905266007066 * u1_t9_h10 + 4.93905266007066 * u1_t10_h10 + 4.37916244244687 * u1_t5_h11 + 4.37916244244687 * u1_t9_h11 + 4.37916244244687 * u1_t10_h11 + 6.67604422490734 * u1_t4_h12 + 6.67604422490734 * u1_t5_h12 + 6.67604422490734 * u1_t8_h12 + 6.67604422490734 * u1_t9_h12 + 6.67604422490734 * u1_t10_h12 + 4.2824515096109 * u1_t4_h13 + 4.2824515096109 * u1_t8_h13 + 4.2824515096109 * u1_t9_h13 + 4.2824515096109 * u1_t10_h13 + 4.94211331127989 * u1_t4_h14 + 4.94211331127989 * u1_t8_h14 + 4.94211331127989 * u1_t9_h14 + 4.94211331127989 * u1_t10_h14 + 5.78731649188055 * u1_t4_h15 + 5.78731649188055 * u1_t8_h15 + 5.82884568597013 * u1_t4_h16 + 5.82884568597013 * u1_t8_h16 + 6.15170329350388 * u1_t4_h17 + 6.15170329350388 * u1_t8_h17 + 6.12522959204717 * u1_t2_h18 + 6.12522959204717 * u1_t4_h18 + 6.12522959204717 * u1_t6_h18 + 6.12522959204717 * u1_t8_h18 + 5.19393816692988 * u1_t2_h19 + 5.19393816692988 * u1_t3_h19 + 5.19393816692988 * u1_t4_h19 + 5.19393816692988 * u1_t6_h19 + 5.48929245584057 * u1_t1_h20 + 5.48929245584057 * u1_t2_h20 + 5.48929245584057 * u1_t3_h20 + 5.48929245584057 * u1_t4_h20 + 5.48929245584057 * u1_t6_h20 + 5.69074998401818 * u1_t1_h21 + 5.69074998401818 * u1_t2_h21 + 5.69074998401818 * u1_t3_h21 + 5.25527026365256 * u1_t1_h22 + 5.25527026365256 * u1_t2_h22 + 5.85074557020455 * u1_t1_h23 + 5.85074557020455 * u1_t2_h23;
0 <= u1_t1_h20 <= 1;
0 <= u1_t1_h21 <= 1;
0 <= u1_t1_h22 <= 1;
0 <= u1_t1_h23 <= 1;
u1_t1_h20 + u1_t1_h21 + u1_t1_h22 + u1_t1_h23 = 1;
0 <= u1_t2_h18 <= 1;
0 <= u1_t2_h19 <= 1;
0 <= u1_t2_h20 <= 1;
0 <= u1_t2_h21 <= 1;
0 <= u1_t2_h22 <= 1;
0 <= u1_t2_h23 <= 1;
u1_t2_h18 + u1_t2_h19 + u1_t2_h20 + u1_t2_h21 + u1_t2_h22 + u1_t2_h23 = 2;
0 <= u1_t3_h19 <= 1;
0 <= u1_t3_h20 <= 1;
0 <= u1_t3_h21 <= 1;
u1_t3_h19 + u1_t3_h20 + u1_t3_h21 = 1;
0 <= u1_t4_h12 <= 1;
0 <= u1_t4_h13 <= 1;
0 <= u1_t4_h14 <= 1;
0 <= u1_t4_h15 <= 1;
0 <= u1_t4_h16 <= 1;
0 <= u1_t4_h17 <= 1;
0 <= u1_t4_h18 <= 1;
0 <= u1_t4_h19 <= 1;
0 <= u1_t4_h20 <= 1;
u1_t4_h12 + u1_t4_h13 + u1_t4_h14 + u1_t4_h15 + u1_t4_h16 + u1_t4_h17 + u1_t4_h18 + u1_t4_h19 + u1_t4_h20 = 3;
0 <= u1_t5_h6 <= 1;
0 <= u1_t5_h7 <= 1;
0 <= u1_t5_h8 <= 1;
0 <= u1_t5_h9 <= 1;
0 <= u1_t5_h10 <= 1;
0 <= u1_t5_h11 <= 1;
0 <= u1_t5_h12 <= 1;
u1_t5_h6 + u1_t5_h7 + u1_t5_h8 + u1_t5_h9 + u1_t5_h10 + u1_t5_h11 + u1_t5_h12 = 3;
0 <= u1_t6_h18 <= 1;
0 <= u1_t6_h19 <= 1;
0 <= u1_t6_h20 <= 1;
u1_t6_h18 + u1_t6_h19 + u1_t6_h20 = 2;
0 <= u1_t7_h4 <= 1;
0 <= u1_t7_h5 <= 1;
0 <= u1_t7_h6 <= 1;
0 <= u1_t7_h7 <= 1;
0 <= u1_t7_h8 <= 1;
0 <= u1_t7_h9 <= 1;
0 <= u1_t7_h10 <= 1;
u1_t7_h4 + u1_t7_h5 + u1_t7_h6 + u1_t7_h7 + u1_t7_h8 + u1_t7_h9 + u1_t7_h10 = 2;
0 <= u1_t8_h12 <= 1;
0 <= u1_t8_h13 <= 1;
0 <= u1_t8_h14 <= 1;
0 <= u1_t8_h15 <= 1;
0 <= u1_t8_h16 <= 1;
0 <= u1_t8_h17 <= 1;
0 <= u1_t8_h18 <= 1;
u1_t8_h12 + u1_t8_h13 + u1_t8_h14 + u1_t8_h15 + u1_t8_h16 + u1_t8_h17 + u1_t8_h18 = 2;
0 <= u1_t9_h7 <= 1;
0 <= u1_t9_h8 <= 1;
0 <= u1_t9_h9 <= 1;
0 <= u1_t9_h10 <= 1;
0 <= u1_t9_h11 <= 1;
0 <= u1_t9_h12 <= 1;
0 <= u1_t9_h13 <= 1;
0 <= u1_t9_h14 <= 1;
u1_t9_h7 + u1_t9_h8 + u1_t9_h9 + u1_t9_h10 + u1_t9_h11 + u1_t9_h12 + u1_t9_h13 + u1_t9_h14 = 3;
0 <= u1_t10_h8 <= 1;
0 <= u1_t10_h9 <= 1;
0 <= u1_t10_h10 <= 1;
0 <= u1_t10_h11 <= 1;
0 <= u1_t10_h12 <= 1;
0 <= u1_t10_h13 <= 1;
0 <= u1_t10_h14 <= 1;
u1_t10_h8 + u1_t10_h9 + u1_t10_h10 + u1_t10_h11 + u1_t10_h12 + u1_t10_h13 + u1_t10_h14 = 3;
